(set-logic QF_UFNRA)
(declare-const r0  Real)
(declare-fun ufrb5 (Real Real Real Real Real) Bool)
(declare-const r1  Real)
(push 1)
(assert (> r1 0.0 r0))
(check-sat)
(pop 1)
(assert (ufrb5 0.0 (* r0 r1         ) 0.0 0.0 0.0))
(check-sat)
